c turning on binary mode checking
c parsing input formula with 259840 variables and 1039929 clauses
c finished parsing, read 23596094 bytes from proof file
c detected empty clause; start verification via backward checking
c 8412 of 1039929 clauses in core                            
c 10084 of 615962 lemmas in core using 68454 resolution steps
c 0 RAT lemmas in core; 483 redundant literals in core lemmas
s VERIFIED
c verification time: 2.689 seconds
